c Reduced graph for GEOM30_1 generated by Cyril Grelier
p edge 15 25
e 1 5
e 1 7
e 1 9
e 1 12
e 2 14
e 4 8
e 4 10
e 4 11
e 4 13
e 4 15
e 5 12
e 7 9
e 8 10
e 8 11
e 8 13
e 8 15
e 9 12
e 9 14
e 10 11
e 10 13
e 10 15
e 11 13
e 11 15
e 12 14
e 13 15
